NAME          
ROWS
 N  OBJ
 L  c1
 L  c2
 L  c3
COLUMNS
    MARKER    'MARKER'                 'INTORG'
    x[1]      c1        199
    x[1]      c2        592
    x[1]      c3        295
    x[1]      OBJ       -948
    x[2]      c1        787
    x[2]      c2        773
    x[2]      c3        152
    x[2]      OBJ       -882
    x[3]      c1        888
    x[3]      c2        831
    x[3]      c3        916
    x[3]      OBJ       -100
    x[4]      c1        882
    x[4]      c2        186
    x[4]      c3        312
    x[4]      OBJ       -105
    x[5]      c1        614
    x[5]      c2        712
    x[5]      c3        584
    x[5]      OBJ       -773
    x[6]      c1        991
    x[6]      c2        438
    x[6]      c3        160
    x[6]      OBJ       -421
    x[7]      c1        936
    x[7]      c2        370
    x[7]      c3        278
    x[7]      OBJ       -603
    x[8]      c1        565
    x[8]      c2        907
    x[8]      c3        788
    x[8]      OBJ       -727
    x[9]      c1        342
    x[9]      c2        791
    x[9]      c3        98
    x[9]      OBJ       -431
    x[10]     c1        789
    x[10]     c2        266
    x[10]     c3        364
    x[10]     OBJ       -338
RHS
    rhs       c1        3496
    rhs       c2        2933
    rhs       c3        1974
RANGES
BOUNDS
 LO bounds    x[1]      0
 PL bounds    x[1]
 LO bounds    x[2]      0
 PL bounds    x[2]
 LO bounds    x[3]      0
 PL bounds    x[3]
 LO bounds    x[4]      0
 PL bounds    x[4]
 LO bounds    x[5]      0
 PL bounds    x[5]
 LO bounds    x[6]      0
 PL bounds    x[6]
 LO bounds    x[7]      0
 PL bounds    x[7]
 LO bounds    x[8]      0
 PL bounds    x[8]
 LO bounds    x[9]      0
 PL bounds    x[9]
 LO bounds    x[10]     0
 PL bounds    x[10]
ENDATA
